
Gurobi 11.0.2 (win64) logging started Mon Jan 20 15:49:37 2025

Set parameter LogFile to value "log_MTTP2_targetS1_E2_Gurobi.log"
Set parameter Method to value 0

Gurobi 11.0.2 (win64) logging started Mon Jan 20 15:49:48 2025

Set parameter LogFile to value "log_MTTP2_targetS1_E2_Gurobi.log"
Gurobi Optimizer version 11.0.2 build v11.0.2rc0 (win64 - Windows 11.0 (22621.2))

CPU model: 12th Gen Intel(R) Core(TM) i7-12700, instruction set [SSE2|AVX|AVX2]
Thread count: 12 physical cores, 20 logical processors, using up to 20 threads

Optimize a model with 5052743 rows, 5902 columns and 10108576 nonzeros
Model fingerprint: 0x3f49fef0
Variable types: 0 continuous, 5902 integer (5902 binary)
Coefficient statistics:
  Matrix range     [1e+00, 2e+00]
  Objective range  [1e+00, 1e+00]
  Bounds range     [0e+00, 0e+00]
  RHS range        [1e+00, 2e+00]
Found heuristic solution: objective -0.0000000
Presolve removed 5027839 rows and 184 columns
Presolve time: 1.03s
Presolved: 24904 rows, 5718 columns, 52898 nonzeros
Variable types: 0 continuous, 5718 integer (5718 binary)
Found heuristic solution: objective 208.0000000

Root relaxation: objective 3.371667e+02, 3299 iterations, 0.02 seconds (0.01 work units)

    Nodes    |    Current Node    |     Objective Bounds      |     Work
 Expl Unexpl |  Obj  Depth IntInf | Incumbent    BestBd   Gap | It/Node Time

     0     0  337.16667    0  231  208.00000  337.16667  62.1%     -    1s
H    0     0                     289.0000000  337.16667  16.7%     -    1s
H    0     0                     298.0000000  337.16667  13.1%     -    1s
H    0     0                     299.0000000  337.16667  12.8%     -    1s
H    0     0                     300.0000000  336.00000  12.0%     -    1s
     0     0  336.00000    0  291  300.00000  336.00000  12.0%     -    1s
H    0     0                     305.0000000  336.00000  10.2%     -    2s
     0     0  336.00000    0  300  305.00000  336.00000  10.2%     -    2s
     0     0  336.00000    0  180  305.00000  336.00000  10.2%     -    2s
H    0     0                     306.0000000  336.00000  9.80%     -    2s
H    0     0                     310.0000000  336.00000  8.39%     -    2s
     0     0  336.00000    0  329  310.00000  336.00000  8.39%     -    2s
H    0     0                     312.0000000  336.00000  7.69%     -    2s
H    0     0                     313.0000000  336.00000  7.35%     -    2s
H    0     0                     315.0000000  336.00000  6.67%     -    2s
     0     0  336.00000    0   66  315.00000  336.00000  6.67%     -    2s
     0     0  336.00000    0  111  315.00000  336.00000  6.67%     -    2s
H    0     0                     318.0000000  336.00000  5.66%     -    2s
H    0     0                     319.0000000  336.00000  5.33%     -    2s
     0     0  336.00000    0   77  319.00000  336.00000  5.33%     -    2s
     0     0  336.00000    0   68  319.00000  336.00000  5.33%     -    2s
H    0     0                     322.0000000  336.00000  4.35%     -    2s
H    0     2                     323.0000000  336.00000  4.02%     -    2s
     0     2  336.00000    0   68  323.00000  336.00000  4.02%     -    2s
H   28    40                     324.0000000  336.00000  3.70%   663    3s
H   75    88                     326.0000000  336.00000  3.07%   480    3s
H   85    88                     329.0000000  336.00000  2.13%   441    3s
H  116   129                     330.0000000  336.00000  1.82%   364    4s
H  167   180                     331.0000000  336.00000  1.51%   333    4s
   236   282  336.00000   17   52  331.00000  336.00000  1.51%   253    5s
H  247   282                     332.0000000  336.00000  1.20%   243    5s
H 2088  2452                     333.0000000  336.00000  0.90%   110    9s
  2500  3080  335.69643   98  444  333.00000  336.00000  0.90%   104   10s
H 4652  2765                     334.0000000  336.00000  0.60%   116   18s
  4700  2736  335.50000   88   26  334.00000  336.00000  0.60%   119   20s
  4957  2917  336.00000   25   24  334.00000  336.00000  0.60%   127   25s
  6124  3911  335.75000   73   92  334.00000  336.00000  0.60%   134   31s
H 6230  3040                     335.0000000  336.00000  0.30%   133   31s
H 6723  2627                     336.0000000  336.00000  0.00%   131   33s

Cutting planes:
  Gomory: 51
  Cover: 185
  Clique: 27
  MIR: 2
  Flow cover: 17
  GUB cover: 12
  Zero half: 45
  RLT: 6

Explored 6742 nodes (879742 simplex iterations) in 33.54 seconds (34.99 work units)
Thread count was 20 (of 20 available processors)

Solution count 10: 336 335 334 ... 324

Optimal solution found (tolerance 1.00e-04)
Best objective 3.360000000000e+02, best bound 3.360000000000e+02, gap 0.0000%

User-callback calls 19022, time in user-callback 0.01 sec

Gurobi 11.0.2 (win64) logging started Tue Jan 21 04:59:02 2025

Set parameter LogFile to value "log_MTTP2_targetS1_E2_Gurobi.log"
Set parameter Method to value 0

Gurobi 11.0.2 (win64) logging started Tue Jan 21 04:59:14 2025

Set parameter LogFile to value "log_MTTP2_targetS1_E2_Gurobi.log"
Gurobi Optimizer version 11.0.2 build v11.0.2rc0 (win64 - Windows 11.0 (22621.2))

CPU model: 12th Gen Intel(R) Core(TM) i7-12700, instruction set [SSE2|AVX|AVX2]
Thread count: 12 physical cores, 20 logical processors, using up to 20 threads

Optimize a model with 5052743 rows, 5902 columns and 10108576 nonzeros
Model fingerprint: 0x3f49fef0
Variable types: 0 continuous, 5902 integer (5902 binary)
Coefficient statistics:
  Matrix range     [1e+00, 2e+00]
  Objective range  [1e+00, 1e+00]
  Bounds range     [0e+00, 0e+00]
  RHS range        [1e+00, 2e+00]
Found heuristic solution: objective -0.0000000
Presolve removed 5027839 rows and 184 columns
Presolve time: 1.09s
Presolved: 24904 rows, 5718 columns, 52898 nonzeros
Variable types: 0 continuous, 5718 integer (5718 binary)
Found heuristic solution: objective 208.0000000

Root relaxation: objective 3.371667e+02, 3299 iterations, 0.02 seconds (0.01 work units)

    Nodes    |    Current Node    |     Objective Bounds      |     Work
 Expl Unexpl |  Obj  Depth IntInf | Incumbent    BestBd   Gap | It/Node Time

     0     0  337.16667    0  231  208.00000  337.16667  62.1%     -    1s
H    0     0                     289.0000000  337.16667  16.7%     -    1s
H    0     0                     298.0000000  337.16667  13.1%     -    1s
H    0     0                     299.0000000  337.16667  12.8%     -    1s
H    0     0                     300.0000000  336.00000  12.0%     -    2s
     0     0  336.00000    0  291  300.00000  336.00000  12.0%     -    2s
H    0     0                     305.0000000  336.00000  10.2%     -    2s
     0     0  336.00000    0  300  305.00000  336.00000  10.2%     -    2s
     0     0  336.00000    0  180  305.00000  336.00000  10.2%     -    2s
H    0     0                     306.0000000  336.00000  9.80%     -    2s
H    0     0                     310.0000000  336.00000  8.39%     -    2s
     0     0  336.00000    0  329  310.00000  336.00000  8.39%     -    2s
H    0     0                     312.0000000  336.00000  7.69%     -    2s
H    0     0                     313.0000000  336.00000  7.35%     -    2s
H    0     0                     315.0000000  336.00000  6.67%     -    2s
     0     0  336.00000    0   66  315.00000  336.00000  6.67%     -    2s
     0     0  336.00000    0  111  315.00000  336.00000  6.67%     -    2s
H    0     0                     318.0000000  336.00000  5.66%     -    2s
H    0     0                     319.0000000  336.00000  5.33%     -    2s
     0     0  336.00000    0   77  319.00000  336.00000  5.33%     -    2s
     0     0  336.00000    0   68  319.00000  336.00000  5.33%     -    2s
H    0     0                     322.0000000  336.00000  4.35%     -    2s
H    0     2                     323.0000000  336.00000  4.02%     -    2s
     0     2  336.00000    0   68  323.00000  336.00000  4.02%     -    2s
H   28    40                     324.0000000  336.00000  3.70%   663    3s
H   75    88                     326.0000000  336.00000  3.07%   480    3s
H   85    88                     329.0000000  336.00000  2.13%   441    4s
H  116   129                     330.0000000  336.00000  1.82%   364    4s
H  167   180                     331.0000000  336.00000  1.51%   333    5s
H  247   282                     332.0000000  336.00000  1.20%   243    6s
  2036  2466  335.69643   97  369  332.00000  336.00000  1.20%   109   11s
H 2088  2452                     333.0000000  336.00000  0.90%   110   11s
H 4652  2765                     334.0000000  336.00000  0.60%   116   19s
  4687  2727  335.50000   52 1693  334.00000  336.00000  0.60%   119   20s
  4822  2828  336.00000   19   22  334.00000  336.00000  0.60%   125   25s
  5678  3812  336.00000   54  120  334.00000  336.00000  0.60%   131   30s
H 6230  3040                     335.0000000  336.00000  0.30%   133   33s
  6722  2755  336.00000   34   23  335.00000  336.00000  0.30%   131   35s
H 6723  2627                     336.0000000  336.00000  0.00%   131   35s

Cutting planes:
  Gomory: 51
  Cover: 185
  Clique: 27
  MIR: 2
  Flow cover: 17
  GUB cover: 12
  Zero half: 45
  RLT: 6

Explored 6742 nodes (879742 simplex iterations) in 36.00 seconds (34.99 work units)
Thread count was 20 (of 20 available processors)

Solution count 10: 336 335 334 ... 324

Optimal solution found (tolerance 1.00e-04)
Best objective 3.360000000000e+02, best bound 3.360000000000e+02, gap 0.0000%

User-callback calls 19519, time in user-callback 0.01 sec
